************************************************************************
file with basedata            : mm62_.bas
initial value random generator: 214862648
************************************************************************
projects                      :  1
jobs (incl. supersource/sink ):  12
horizon                       :  72
RESOURCES
  - renewable                 :  2   R
  - nonrenewable              :  2   N
  - doubly constrained        :  0   D
************************************************************************
PROJECT INFORMATION:
pronr.  #jobs rel.date duedate tardcost  MPM-Time
    1     10      0       18        3       18
************************************************************************
PRECEDENCE RELATIONS:
jobnr.    #modes  #successors   successors
   1        1          3           2   3   4
   2        3          2           6   8
   3        3          1           5
   4        3          1          11
   5        3          3           6   7   9
   6        3          1          10
   7        3          2          10  11
   8        3          2           9  10
   9        3          1          12
  10        3          1          12
  11        3          1          12
  12        1          0        
************************************************************************
REQUESTS/DURATIONS:
jobnr. mode duration  R 1  R 2  N 1  N 2
------------------------------------------------------------------------
  1      1     0       0    0    0    0
  2      1     6       8   10    4    3
         2     7       6   10    4    3
         3     8       4   10    3    3
  3      1     2       8    4    6    3
         2     3       7    3    6    2
         3     7       7    1    6    1
  4      1     2       6   10   10    9
         2     7       6    9    9    6
         3     9       4    8    9    3
  5      1     2      10    7    8    4
         2     6       7    7    7    4
         3    10       6    6    4    4
  6      1     1       5    3    6    8
         2     5       3    3    6    8
         3     8       1    3    5    8
  7      1     4       6    1    9    5
         2     9       5    1    9    4
         3     9       3    1    9    5
  8      1     2       6    8    2    3
         2     2       8    4    2    2
         3     2       7    2    2    3
  9      1    10       7    3    7    8
         2    10       8    3    5    8
         3    10       8    3    4    9
 10      1     2       3    4    9    7
         2     3       2    3    4    6
         3     3       1    4    6    6
 11      1     2      10    4    5   10
         2     3       9    4    4    9
         3     6       8    3    2    9
 12      1     0       0    0    0    0
************************************************************************
RESOURCEAVAILABILITIES:
  R 1  R 2  N 1  N 2
   22   24   57   55
************************************************************************
MAXIMAL LAGS:
from  to  type  delay
    1   12   ES      0
    1    2   ES      0
    2   12   ES      0
    1    3   ES      0
    3   12   ES      0
    1    4   ES      0
    4   12   ES      0
    1    5   ES      0
    5   12   ES      0
    1    6   ES      0
    6   12   ES      0
    1    7   ES      0
    7   12   ES      0
    1    8   ES      0
    8   12   ES      0
    1    9   ES      0
    9   12   ES      0
    1   10   ES      0
   10   12   ES      0
    1   11   ES      0
   11   12   ES      0
    1   12   ES      0
    2    6   SS     -3
    2    6   SE      5
    2    6   ES     11
    2    6   EE     -5
    2    8   SS      4
    2    8   SE      7
    2    8   ES     -5
    2    8   EE     -2
    3    5   SS      9
    3    5   SE      9
    3    5   ES      7
    3    5   EE     -1
    4   11   SS      8
    4   11   SE     -5
    4   11   ES      4
    4   11   EE     -8
    5    6   SS      9
    5    6   SE      5
    5    6   ES     12
    5    6   EE    -12
    5    7   SS     -3
    5    7   SE    -12
    5    7   ES     -1
    5    7   EE      1
    5    9   SS      9
    5    9   SE     -9
    5    9   ES     -8
    5    9   EE     10
    6   10   SS      6
    6   10   SE      7
    6   10   ES      1
    6   10   EE     -2
    7   10   SS    -12
    7   10   SE      5
    7   10   ES     -8
    7   10   EE      0
    7   11   SS      6
    7   11   SE     12
    7   11   ES     -1
    7   11   EE      5
    8    9   SS      9
    8    9   SE     -8
    8    9   ES      1
    8    9   EE      9
    8   10   SS     -4
    8   10   SE    -10
    8   10   ES      5
    8   10   EE      0
************************************************************************
